n_res = 4;
rc = [ 23, 35, 22, 24 ];
n_tasks = 30;
d = [ 10, 1, 8, 7, 10, 4, 2, 9, 9, 1, 4, 8, 7, 1, 2, 7, 3, 10, 2, 2, 6, 7, 5, 7, 7, 2, 8, 8, 4, 9 ];
rr = [| 2, 0, 6, 0, 0, 0, 3, 4, 10, 5, 6, 3, 7, 9, 0, 6, 7, 0, 8, 8, 3, 1, 2, 2, 4, 5, 5, 4, 0, 0
      | 9, 0, 7, 9, 2, 5, 6, 10, 0, 6, 5, 9, 0, 5, 0, 10, 10, 2, 7, 10, 10, 0, 3, 0, 4, 9, 6, 4, 4, 7
      | 0, 8, 4, 2, 6, 7, 0, 0, 2, 8, 0, 5, 0, 1, 9, 9, 10, 4, 1, 6, 0, 6, 5, 7, 0, 4, 0, 6, 7, 9
      | 0, 6, 6, 10, 0, 1, 0, 1, 1, 10, 0, 1, 8, 0, 0, 6, 9, 5, 8, 10, 8, 10, 3, 8, 5, 3, 2, 3, 0, 2 |];
suc = [ { 2 }, 
        { 1 }, 
        { 4 }, 
        { 3 }, 
        { 6 }, 
        { 5 }, 
        { 8 }, 
        { 7 }, 
        { 10 }, 
        { 9 }, 
        { 12 }, 
        { 11 }, 
        { 14 }, 
        { 13 }, 
        { 16 }, 
        { 15 }, 
        { 18 }, 
        { 17 }, 
        { 20 }, 
        { 19 }, 
        { 22 }, 
        { 21 }, 
        { 24 }, 
        { 23 }, 
        { 26 }, 
        { 25 }, 
        { 28 }, 
        { 27 }, 
        { 30 }, 
        { 29 }]; 
